NAME : CMT1 solved with length 620.1624976086179
TYPE : TOUR
DIMENSION : 51
TOUR_SECTION
1 5 18 45 43 41 20 42 14 19 -1
1 7 15 26 25 44 8 24 49 28 -1
1 6 39 10 50 11 34 46 16 38 13 -1
1 33 2 23 3 30 22 51 17 12 47 48 -1
1 32 29 4 37 36 21 35 31 40 -1
1 9 27 -1
-1
EOF